p cnf 48 122
1 3 5 7 9 11 13 15 17 19 21 23 25 27 29 31 33 35 37 39 41 43 45 47 0
2 4 6 8 10 12 14 16 18 20 22 24 26 28 30 32 34 36 38 40 42 44 46 48 0
1 2 0
3 4 0
5 6 0
7 8 0
9 10 0
11 12 0
13 14 0
15 16 0
17 18 0
19 20 0
21 22 0
23 24 0
25 26 0
27 28 0
29 30 0
31 32 0
33 34 0
35 36 0
37 38 0
39 40 0
41 42 0
43 44 0
45 46 0
47 48 0
-1 -2 0
-3 -4 0
-5 -6 0
-7 -8 0
-9 -10 0
-11 -12 0
-13 -14 0
-15 -16 0
-17 -18 0
-19 -20 0
-21 -22 0
-23 -24 0
-25 -26 0
-27 -28 0
-29 -30 0
-31 -32 0
-33 -34 0
-35 -36 0
-37 -38 0
-39 -40 0
-41 -42 0
-43 -44 0
-45 -46 0
-47 -48 0
-1 -3 0
-2 -4 0
-1 -7 0
-2 -8 0
-1 -9 0
-2 -10 0
-3 -5 0
-4 -6 0
-3 -15 0
-4 -16 0
-5 -7 0
-6 -8 0
-5 -21 0
-6 -22 0
-7 -27 0
-8 -28 0
-9 -11 0
-10 -12 0
-9 -31 0
-10 -32 0
-11 -13 0
-12 -14 0
-11 -33 0
-12 -34 0
-13 -15 0
-14 -16 0
-13 -35 0
-14 -36 0
-15 -17 0
-16 -18 0
-17 -19 0
-18 -20 0
-17 -35 0
-18 -36 0
-19 -21 0
-20 -22 0
-19 -37 0
-20 -38 0
-21 -23 0
-22 -24 0
-23 -25 0
-24 -26 0
-23 -37 0
-24 -38 0
-25 -27 0
-26 -28 0
-25 -39 0
-26 -40 0
-27 -29 0
-28 -30 0
-29 -31 0
-30 -32 0
-29 -39 0
-30 -40 0
-31 -33 0
-32 -34 0
-33 -41 0
-34 -42 0
-35 -43 0
-36 -44 0
-37 -45 0
-38 -46 0
-39 -47 0
-40 -48 0
-41 -43 0
-42 -44 0
-41 -47 0
-42 -48 0
-43 -45 0
-44 -46 0
-45 -47 0
-46 -48 0
